(set-info :smt-lib-version 2.6)
(set-logic QF_UFLRA)
(set-info :source |CPAchecker with k-induction on SV-COMP14 program using MathSAT5, submitted by Philipp Wendler, http://cpachecker.sosy-lab.org|)
(set-info :category "industrial")
(set-info :status unsat)


(declare-fun ldv_spin@1 () Real)
(declare-fun |iio_dummy_evgen_init::___cpa_temp_result_var_@1| () Real)
(declare-fun |iio_dummy_evgen_create::__cil_tmp12@1| () Real)
(declare-fun |main::tmp@1| () Real)
(declare-fun |iio_dummy_evgen_create::i@1| () Real)
(declare-fun ___pc@1 () Real)
(define-fun _7 () Real 0)
(define-fun _14 () Real 1)
(define-fun _573 () Real 2)
(define-fun _759 () Real ___pc@1)
(define-fun _760 () Bool (= _759 _7))
(define-fun _763 () Bool (= _759 _573))
(define-fun _775 () Real |iio_dummy_evgen_create::i@1|)
(define-fun _1152 () Real |iio_dummy_evgen_create::__cil_tmp12@1|)
(define-fun _1281 () Real ldv_spin@1)
(define-fun _1341 () Real |main::tmp@1|)
(define-fun _1820 () Bool (= _759 _14))
(define-fun _1821 () Bool (= _1341 _7))
(define-fun _1822 () Real |iio_dummy_evgen_init::___cpa_temp_result_var_@1|)
(define-fun _1823 () Bool (= _1822 _7))
(define-fun _1824 () Bool (= _1281 _7))
(define-fun _1825 () Bool (and _1823 _1824))
(define-fun _1826 () Bool (and _1821 _1825))
(define-fun _1827 () Bool (and _1820 _1826))
(define-fun _1828 () Bool (<= _7 _775))
(define-fun _1829 () Bool (<= _7 _1152))
(define-fun _1830 () Bool (and _1824 _1829))
(define-fun _1831 () Bool (and _1828 _1830))
(define-fun _1832 () Bool (and _763 _1831))
(define-fun _1833 () Bool (or _760 _1832))
(define-fun _1834 () Bool (or _1827 _1833))
(define-fun _2 () Bool false)



(assert _1834)

(assert _2)
(check-sat)


(exit)
